(set-logic HORN)
(set-info :source |
    Benchmark: C_VC
    Output by Princess (http://www.philipp.ruemmer.org/princess.shtml)
|)
(set-info :status sat)
(declare-fun inv_main15 (Int Int Int Int Int Int Int Int) Bool)
(declare-fun inv_main16 (Int Int Int Int Int Int Int Int) Bool)
(declare-fun inv_main4 (Int Int Int Int Int Int Int Int) Bool)
(assert (forall ((var0 Int) (var1 Int) (var2 Int) (var3 Int) (var4 Int) (var5 Int) (var6 Int)) (inv_main4 0 var6 var5 var4 var3 var2 var1 var0)))
(assert (forall ((var0 Int) (var1 Int) (var2 Int) (var3 Int) (var4 Int) (var5 Int) (var6 Int) (var7 Int)) (or (not (and (inv_main16 var7 var6 var5 var4 var3 var2 var1 var0) (not (<= 0 (+ (+ var4 (* (- 1) var1)) (- 1)))))) (inv_main15 var7 var6 var5 var4 var3 var2 var1 var0))))
(assert (forall ((var0 Int) (var1 Int) (var2 Int) (var3 Int) (var4 Int) (var5 Int) (var6 Int) (var7 Int) (var8 Int) (var9 Int) (var10 Int) (var11 Int) (var12 Int) (var13 Int) (var14 Int) (var15 Int) (var16 Int) (var17 Int) (var18 Int)) (or (not (and (inv_main4 var18 var17 var16 var15 var14 var13 var12 var11) (and (not (<= 0 (+ (+ 100 (* (- 1) var10)) (- 1)))) (and (and (and (and (and (and (and (= var10 var18) (= var9 var8)) (= var7 var6)) (= var5 var4)) (= var3 var6)) (= var2 1)) (= var1 1)) (= var0 (* var6 var8)))))) (inv_main15 (+ var10 1) var9 var7 var5 var3 var2 var1 var0))))
(assert (forall ((var0 Int) (var1 Int) (var2 Int) (var3 Int) (var4 Int) (var5 Int) (var6 Int) (var7 Int) (var8 Int) (var9 Int) (var10 Int) (var11 Int) (var12 Int) (var13 Int) (var14 Int) (var15 Int) (var16 Int) (var17 Int) (var18 Int) (var19 Int) (var20 Int) (var21 Int) (var22 Int) (var23 Int)) (or (not (and (inv_main16 var23 var22 var21 var20 var19 var18 var17 var16) (and (and (not (<= 0 (+ (+ 100 (* (- 1) var15)) (- 1)))) (and (<= 0 (+ (+ var20 (* (- 1) var17)) (- 1))) (and (and (and (and (and (and (and (= var14 var23) (= var13 var22)) (= var12 var21)) (= var11 var20)) (= var10 (+ (* var19 var22) var21))) (= var9 var18)) (= var8 (+ var17 1))) (= var7 var16)))) (and (and (and (and (and (and (and (= var15 var14) (= var6 var13)) (= var5 var12)) (= var4 var11)) (= var3 var10)) (= var2 (* var9 var13))) (= var1 var8)) (= var0 var7))))) (inv_main15 (+ var15 1) var6 var5 var4 var3 var2 var1 var0))))
(assert (forall ((var0 Int) (var1 Int) (var2 Int) (var3 Int) (var4 Int) (var5 Int) (var6 Int) (var7 Int) (var8 Int) (var9 Int) (var10 Int) (var11 Int) (var12 Int) (var13 Int) (var14 Int) (var15 Int) (var16 Int) (var17 Int) (var18 Int)) (or (not (and (inv_main4 var18 var17 var16 var15 var14 var13 var12 var11) (and (<= 0 (+ (+ 100 (* (- 1) var10)) (- 1))) (and (and (and (and (and (and (and (= var10 var18) (= var9 var8)) (= var7 var6)) (= var5 var4)) (= var3 var6)) (= var2 1)) (= var1 1)) (= var0 (* var6 var8)))))) (inv_main16 (+ var10 1) var9 var7 var5 var3 var2 var1 var0))))
(assert (forall ((var0 Int) (var1 Int) (var2 Int) (var3 Int) (var4 Int) (var5 Int) (var6 Int) (var7 Int) (var8 Int) (var9 Int) (var10 Int) (var11 Int) (var12 Int) (var13 Int) (var14 Int) (var15 Int) (var16 Int) (var17 Int) (var18 Int) (var19 Int) (var20 Int) (var21 Int) (var22 Int) (var23 Int)) (or (not (and (inv_main16 var23 var22 var21 var20 var19 var18 var17 var16) (and (and (<= 0 (+ (+ 100 (* (- 1) var15)) (- 1))) (and (<= 0 (+ (+ var20 (* (- 1) var17)) (- 1))) (and (and (and (and (and (and (and (= var14 var23) (= var13 var22)) (= var12 var21)) (= var11 var20)) (= var10 (+ (* var19 var22) var21))) (= var9 var18)) (= var8 (+ var17 1))) (= var7 var16)))) (and (and (and (and (and (and (and (= var15 var14) (= var6 var13)) (= var5 var12)) (= var4 var11)) (= var3 var10)) (= var2 (* var9 var13))) (= var1 var8)) (= var0 var7))))) (inv_main16 (+ var15 1) var6 var5 var4 var3 var2 var1 var0))))
(assert (forall ((var0 Int) (var1 Int) (var2 Int) (var3 Int) (var4 Int) (var5 Int) (var6 Int) (var7 Int)) (not (and (inv_main16 var7 var6 var5 var4 var3 var2 var1 var0) (not (= (+ (+ (+ (* var6 var3) (* (- 1) var3)) var5) (* (- 1) (* var0 var2))) 0))))))
(assert (forall ((var0 Int) (var1 Int) (var2 Int) (var3 Int) (var4 Int) (var5 Int) (var6 Int) (var7 Int)) (not (and (inv_main15 var7 var6 var5 var4 var3 var2 var1 var0) (not (= (+ (+ (+ (* var6 var3) (* (- 1) var3)) var5) (* (- 1) (* var0 var2))) 0))))))
(check-sat)
